************************************************************************
file with basedata            : mm50_.bas
initial value random generator: 661963818
************************************************************************
projects                      :  1
jobs (incl. supersource/sink ):  12
horizon                       :  85
RESOURCES
  - renewable                 :  2   R
  - nonrenewable              :  2   N
  - doubly constrained        :  0   D
************************************************************************
PROJECT INFORMATION:
pronr.  #jobs rel.date duedate tardcost  MPM-Time
    1     10      0       20        9       20
************************************************************************
PRECEDENCE RELATIONS:
jobnr.    #modes  #successors   successors
   0        1          3           1   2   3
   1        3          2           7  10
   2        3          2           5  10
   3        3          3           4   9  10
   4        3          1           6
   5        3          2           7   9
   6        3          1           7
   7        3          1           8
   8        3          1          11
   9        3          1          11
  10        3          1          11
  11        1          0        
************************************************************************
REQUESTS/DURATIONS:
jobnr. mode duration  R 1  R 2  R 3  R 4  E(W 1)  E(W 2)
------------------------------------------------------------------------
  0      1     0       0    0    0    0     0       0
  1      1     1       5   10    0    4    15       4
  2      1     2       3    5    0    4    16       8
  3      1     4       9   10    8    0    76      32
  4      1     7       8    5    9    0    91      63
  5      1     5       7    7    3    0    70      15
  6      1     1       5    8    5    0    13       5
  7      1     5       9    7    0    5    80      25
  8      1     3       9    8    4    0    51      12
  9      1     4       8    5    2    0    52       8
 10      1     3       5    5    3    0    30       9
 11      1     0       0    0    0    0     0       0
************************************************************************
RESOURCEAVAILABILITIES:
  R 1  R 2
   37   54
************************************************************************
RESOURCE LIMITS:
jobnr.  l(R 1)  u(R 1)  l(R 2)  u(R 2)
------------------------------------------------------------------------
  0        0       0       0       0
  1        8      15       2       4
  2        5       8       2       4
  3       10      19       4       8
  4        7      13       5       9
  5        8      14       2       3
  6        7      13       3       5
  7        9      16       3       5
  8        9      17       2       4
  9        7      13       1       2
 10        6      10       2       3
 11        0       0       0       0
************************************************************************
SCENARIOS:
------------------------------------------------------------------------
RESOURCE k = 1
s = 1: (0, 23, 17, 53, 98, 46, 18, 69, 34, 51, 21, 0)
s = 2: (0, 10, 19, 49, 137, 77, 13, 69, 37, 60, 47, 0)
s = 3: (0, 15, 13, 80, 111, 69, 13, 96, 32, 73, 26, 0)
s = 4: (0, 17, 9, 55, 58, 40, 12, 100, 40, 64, 38, 0)
s = 5: (0, 18, 10, 121, 108, 103, 15, 75, 61, 34, 18, 0)
s = 6: (0, 22, 15, 87, 77, 55, 8, 72, 79, 53, 41, 0)
s = 7: (0, 26, 19, 58, 60, 76, 13, 75, 47, 59, 27, 0)
s = 8: (0, 16, 13, 93, 92, 98, 18, 74, 31, 57, 53, 0)
s = 9: (0, 20, 13, 94, 105, 40, 18, 54, 52, 56, 38, 0)
s = 10: (0, 19, 11, 114, 92, 103, 16, 120, 58, 48, 26, 0)
s = 11: (0, 11, 17, 101, 66, 84, 10, 98, 42, 52, 21, 0)
s = 12: (0, 12, 21, 62, 56, 68, 12, 85, 60, 80, 31, 0)
s = 13: (0, 17, 25, 66, 71, 93, 10, 83, 59, 58, 35, 0)
s = 14: (0, 11, 17, 52, 98, 77, 11, 84, 63, 48, 23, 0)
s = 15: (0, 11, 16, 57, 111, 41, 23, 46, 54, 44, 34, 0)
s = 16: (0, 12, 16, 96, 59, 42, 13, 80, 44, 55, 32, 0)
s = 17: (0, 18, 16, 70, 72, 61, 16, 57, 53, 53, 38, 0)
s = 18: (0, 15, 25, 77, 75, 56, 11, 75, 60, 71, 29, 0)
s = 19: (0, 19, 22, 49, 104, 71, 14, 88, 52, 47, 47, 0)
s = 20: (0, 13, 22, 79, 53, 65, 16, 91, 48, 71, 17, 0)
s = 21: (0, 17, 11, 48, 116, 49, 17, 94, 55, 37, 24, 0)
s = 22: (0, 16, 15, 141, 95, 90, 16, 52, 29, 52, 32, 0)
s = 23: (0, 18, 15, 71, 94, 71, 17, 84, 35, 52, 32, 0)
s = 24: (0, 10, 14, 66, 115, 82, 11, 124, 62, 50, 24, 0)
s = 25: (0, 22, 17, 58, 159, 44, 13, 100, 28, 68, 33, 0)
s = 26: (0, 11, 17, 76, 77, 68, 10, 88, 53, 33, 33, 0)
s = 27: (0, 12, 23, 82, 67, 77, 19, 121, 60, 79, 22, 0)
s = 28: (0, 13, 9, 49, 55, 81, 9, 112, 80, 56, 48, 0)
s = 29: (0, 15, 13, 119, 66, 73, 11, 92, 63, 33, 41, 0)
s = 30: (0, 9, 18, 91, 94, 75, 8, 61, 71, 73, 30, 0)
s = 31: (0, 17, 16, 88, 116, 103, 8, 85, 53, 30, 23, 0)
s = 32: (0, 15, 20, 70, 90, 77, 10, 58, 30, 30, 41, 0)
s = 33: (0, 26, 12, 128, 72, 64, 16, 137, 71, 30, 28, 0)
s = 34: (0, 14, 26, 72, 98, 58, 10, 102, 78, 58, 34, 0)
s = 35: (0, 19, 14, 85, 73, 60, 15, 59, 33, 43, 43, 0)
s = 36: (0, 18, 21, 73, 124, 53, 12, 100, 64, 57, 23, 0)
s = 37: (0, 19, 22, 48, 87, 54, 13, 51, 61, 52, 29, 0)
s = 38: (0, 13, 20, 68, 63, 62, 21, 67, 35, 41, 36, 0)
s = 39: (0, 22, 18, 61, 62, 89, 10, 121, 84, 51, 35, 0)
s = 40: (0, 12, 12, 96, 70, 46, 13, 62, 41, 45, 24, 0)
s = 41: (0, 18, 15, 65, 104, 102, 15, 46, 56, 33, 26, 0)
s = 42: (0, 15, 19, 56, 64, 67, 19, 105, 74, 57, 25, 0)
s = 43: (0, 9, 13, 96, 71, 48, 12, 79, 36, 59, 29, 0)
s = 44: (0, 9, 19, 93, 59, 67, 11, 64, 51, 58, 42, 0)
s = 45: (0, 19, 17, 68, 111, 57, 13, 70, 30, 87, 39, 0)
s = 46: (0, 13, 9, 69, 90, 50, 13, 66, 38, 44, 26, 0)
s = 47: (0, 13, 12, 105, 108, 94, 13, 89, 49, 35, 28, 0)
s = 48: (0, 11, 20, 81, 98, 51, 11, 63, 34, 39, 34, 0)
s = 49: (0, 17, 20, 124, 50, 110, 13, 88, 81, 52, 52, 0)
s = 50: (0, 11, 18, 55, 78, 87, 11, 56, 71, 34, 38, 0)
s = 51: (0, 23, 9, 70, 100, 67, 8, 73, 34, 68, 28, 0)
s = 52: (0, 18, 13, 76, 69, 52, 13, 122, 76, 47, 23, 0)
s = 53: (0, 18, 9, 88, 91, 77, 15, 67, 55, 45, 21, 0)
s = 54: (0, 13, 14, 53, 114, 83, 13, 78, 93, 44, 32, 0)
s = 55: (0, 16, 12, 79, 116, 45, 15, 84, 52, 33, 25, 0)
s = 56: (0, 12, 18, 99, 73, 90, 16, 72, 43, 45, 20, 0)
s = 57: (0, 9, 30, 76, 84, 52, 10, 69, 47, 36, 48, 0)
s = 58: (0, 14, 13, 53, 52, 49, 13, 51, 44, 30, 37, 0)
s = 59: (0, 15, 22, 59, 125, 80, 7, 45, 40, 50, 33, 0)
s = 60: (0, 8, 25, 83, 68, 63, 10, 72, 33, 47, 24, 0)
s = 61: (0, 10, 24, 82, 79, 84, 8, 86, 87, 59, 35, 0)
s = 62: (0, 24, 20, 102, 55, 53, 15, 111, 63, 44, 33, 0)
s = 63: (0, 14, 22, 85, 60, 100, 15, 99, 38, 57, 36, 0)
s = 64: (0, 19, 11, 131, 160, 49, 13, 67, 42, 43, 23, 0)
s = 65: (0, 9, 14, 65, 129, 78, 11, 58, 62, 40, 23, 0)
s = 66: (0, 22, 16, 122, 58, 64, 9, 79, 51, 60, 43, 0)
s = 67: (0, 12, 10, 46, 52, 53, 10, 66, 45, 92, 37, 0)
s = 68: (0, 13, 25, 42, 105, 65, 13, 52, 32, 80, 21, 0)
s = 69: (0, 13, 12, 55, 115, 40, 11, 101, 55, 39, 42, 0)
s = 70: (0, 13, 28, 122, 83, 65, 13, 58, 50, 60, 29, 0)
s = 71: (0, 12, 16, 54, 93, 94, 15, 96, 48, 66, 42, 0)
s = 72: (0, 21, 16, 64, 94, 119, 14, 122, 44, 39, 17, 0)
s = 73: (0, 26, 16, 110, 100, 77, 12, 93, 66, 30, 31, 0)
s = 74: (0, 10, 28, 68, 103, 111, 9, 71, 38, 44, 45, 0)
s = 75: (0, 25, 22, 61, 78, 91, 12, 50, 48, 59, 26, 0)
s = 76: (0, 18, 19, 105, 72, 75, 14, 51, 55, 33, 34, 0)
s = 77: (0, 17, 24, 54, 96, 72, 18, 47, 37, 50, 30, 0)
s = 78: (0, 10, 11, 79, 104, 50, 13, 81, 36, 78, 24, 0)
s = 79: (0, 13, 18, 76, 84, 63, 10, 88, 38, 47, 24, 0)
s = 80: (0, 10, 10, 73, 112, 45, 21, 55, 44, 33, 22, 0)
s = 81: (0, 22, 23, 49, 90, 43, 15, 106, 45, 49, 20, 0)
s = 82: (0, 14, 15, 110, 104, 46, 16, 110, 28, 55, 39, 0)
s = 83: (0, 11, 21, 78, 61, 84, 12, 116, 77, 40, 35, 0)
s = 84: (0, 17, 10, 82, 68, 60, 12, 83, 61, 37, 23, 0)
s = 85: (0, 17, 22, 115, 80, 47, 15, 64, 57, 48, 33, 0)
s = 86: (0, 17, 24, 105, 113, 66, 13, 76, 44, 32, 21, 0)
s = 87: (0, 19, 14, 106, 86, 63, 16, 61, 44, 53, 25, 0)
s = 88: (0, 14, 16, 48, 114, 66, 8, 53, 39, 77, 26, 0)
s = 89: (0, 17, 17, 101, 58, 82, 16, 87, 30, 49, 21, 0)
s = 90: (0, 15, 19, 42, 83, 73, 11, 121, 34, 36, 36, 0)
s = 91: (0, 15, 20, 108, 69, 66, 14, 49, 41, 73, 25, 0)
s = 92: (0, 9, 30, 82, 80, 56, 14, 67, 60, 45, 28, 0)
s = 93: (0, 16, 28, 100, 159, 52, 12, 62, 31, 97, 19, 0)
s = 94: (0, 21, 14, 110, 110, 105, 12, 63, 30, 31, 39, 0)
s = 95: (0, 16, 16, 62, 95, 117, 15, 139, 45, 79, 34, 0)
s = 96: (0, 24, 17, 64, 76, 67, 12, 86, 37, 41, 18, 0)
s = 97: (0, 11, 14, 104, 75, 53, 9, 60, 48, 34, 27, 0)
s = 98: (0, 10, 15, 89, 138, 87, 14, 55, 37, 67, 41, 0)
s = 99: (0, 15, 11, 83, 65, 90, 16, 66, 36, 62, 26, 0)
s = 100: (0, 16, 29, 125, 116, 70, 7, 72, 84, 63, 30, 0)
s = 101: (0, 15, 14, 123, 111, 54, 17, 86, 47, 71, 44, 0)
s = 102: (0, 12, 14, 73, 55, 104, 11, 49, 49, 47, 40, 0)
s = 103: (0, 21, 13, 72, 117, 72, 10, 52, 44, 51, 21, 0)
s = 104: (0, 13, 19, 46, 95, 43, 14, 52, 47, 46, 18, 0)
s = 105: (0, 12, 22, 79, 92, 124, 14, 95, 81, 48, 35, 0)
s = 106: (0, 23, 15, 75, 62, 58, 12, 83, 40, 48, 38, 0)
s = 107: (0, 15, 13, 51, 100, 50, 14, 79, 51, 36, 23, 0)
s = 108: (0, 12, 16, 51, 81, 52, 10, 106, 35, 61, 28, 0)
s = 109: (0, 16, 25, 63, 81, 81, 18, 61, 54, 44, 37, 0)
s = 110: (0, 19, 18, 64, 101, 87, 19, 70, 28, 65, 40, 0)
s = 111: (0, 16, 20, 77, 68, 82, 20, 57, 47, 48, 29, 0)
s = 112: (0, 15, 10, 87, 70, 87, 13, 76, 87, 44, 20, 0)
s = 113: (0, 13, 13, 41, 103, 76, 18, 73, 53, 31, 33, 0)
s = 114: (0, 15, 21, 77, 79, 69, 12, 68, 44, 53, 31, 0)
s = 115: (0, 14, 12, 77, 147, 48, 12, 49, 63, 54, 47, 0)
s = 116: (0, 12, 16, 69, 138, 69, 13, 96, 30, 49, 36, 0)
s = 117: (0, 12, 17, 56, 108, 40, 16, 76, 34, 54, 20, 0)
s = 118: (0, 19, 21, 129, 95, 94, 9, 80, 43, 39, 33, 0)
s = 119: (0, 16, 15, 69, 95, 67, 11, 78, 33, 42, 27, 0)
s = 120: (0, 24, 17, 57, 108, 70, 19, 63, 57, 57, 28, 0)
s = 121: (0, 9, 14, 45, 89, 43, 14, 57, 52, 47, 27, 0)
s = 122: (0, 8, 14, 45, 85, 70, 11, 88, 51, 31, 29, 0)
s = 123: (0, 13, 20, 72, 76, 54, 9, 94, 45, 43, 18, 0)
s = 124: (0, 14, 14, 114, 66, 72, 8, 49, 53, 32, 30, 0)
s = 125: (0, 20, 14, 75, 69, 68, 20, 93, 36, 38, 22, 0)
s = 126: (0, 14, 14, 74, 81, 76, 12, 95, 79, 41, 33, 0)
s = 127: (0, 12, 20, 51, 88, 130, 14, 96, 65, 57, 31, 0)
s = 128: (0, 17, 17, 74, 99, 56, 13, 89, 43, 73, 19, 0)
s = 129: (0, 15, 17, 77, 53, 43, 16, 78, 37, 50, 24, 0)
s = 130: (0, 18, 23, 51, 51, 70, 19, 123, 28, 43, 31, 0)
s = 131: (0, 17, 12, 94, 56, 62, 12, 91, 47, 52, 26, 0)
s = 132: (0, 15, 18, 86, 93, 54, 14, 116, 75, 43, 23, 0)
s = 133: (0, 14, 12, 84, 101, 43, 20, 68, 47, 65, 42, 0)
s = 134: (0, 19, 12, 61, 136, 47, 12, 78, 36, 44, 23, 0)
s = 135: (0, 16, 22, 60, 132, 64, 13, 117, 57, 90, 37, 0)
s = 136: (0, 13, 10, 95, 94, 60, 10, 131, 44, 55, 23, 0)
s = 137: (0, 17, 16, 87, 57, 65, 23, 58, 61, 48, 22, 0)
s = 138: (0, 14, 10, 58, 54, 127, 9, 83, 38, 51, 46, 0)
s = 139: (0, 18, 21, 74, 93, 61, 9, 107, 38, 42, 32, 0)
s = 140: (0, 15, 18, 127, 92, 77, 13, 58, 54, 57, 38, 0)
s = 141: (0, 13, 16, 85, 67, 68, 8, 112, 33, 74, 28, 0)
s = 142: (0, 17, 21, 77, 71, 70, 22, 56, 64, 36, 17, 0)
s = 143: (0, 10, 19, 62, 97, 53, 17, 65, 49, 36, 31, 0)
s = 144: (0, 13, 19, 95, 88, 43, 12, 42, 45, 51, 58, 0)
s = 145: (0, 19, 14, 63, 85, 66, 14, 89, 35, 39, 36, 0)
s = 146: (0, 16, 16, 85, 83, 56, 19, 58, 28, 43, 25, 0)
s = 147: (0, 11, 19, 63, 73, 50, 10, 102, 52, 32, 33, 0)
s = 148: (0, 18, 22, 91, 103, 59, 14, 52, 54, 54, 33, 0)
s = 149: (0, 24, 25, 52, 109, 45, 9, 91, 51, 61, 35, 0)
s = 150: (0, 12, 11, 73, 136, 102, 15, 65, 38, 73, 28, 0)
s = 151: (0, 12, 16, 44, 77, 49, 17, 115, 32, 60, 27, 0)
s = 152: (0, 18, 14, 81, 101, 51, 10, 114, 52, 47, 27, 0)
s = 153: (0, 15, 13, 96, 115, 75, 13, 65, 51, 75, 33, 0)
s = 154: (0, 18, 15, 82, 59, 99, 10, 83, 43, 51, 30, 0)
s = 155: (0, 12, 13, 87, 80, 51, 12, 89, 49, 52, 25, 0)
s = 156: (0, 11, 16, 90, 122, 124, 13, 98, 51, 37, 25, 0)
s = 157: (0, 14, 13, 90, 62, 93, 11, 90, 40, 44, 34, 0)
s = 158: (0, 21, 12, 88, 78, 46, 24, 78, 41, 68, 28, 0)
s = 159: (0, 16, 12, 64, 114, 79, 10, 61, 31, 40, 29, 0)
s = 160: (0, 9, 13, 76, 57, 41, 16, 101, 31, 69, 24, 0)
s = 161: (0, 13, 14, 66, 70, 101, 14, 124, 35, 45, 47, 0)
s = 162: (0, 18, 14, 109, 71, 89, 15, 61, 42, 29, 21, 0)
s = 163: (0, 17, 20, 76, 77, 86, 15, 90, 44, 40, 21, 0)
s = 164: (0, 13, 16, 61, 121, 118, 9, 67, 44, 60, 31, 0)
s = 165: (0, 11, 16, 74, 60, 57, 13, 155, 27, 37, 32, 0)
s = 166: (0, 13, 18, 78, 62, 113, 14, 82, 37, 46, 21, 0)
s = 167: (0, 18, 11, 49, 97, 89, 16, 106, 49, 64, 27, 0)
s = 168: (0, 14, 14, 76, 124, 61, 18, 111, 35, 62, 24, 0)
s = 169: (0, 23, 14, 58, 65, 63, 9, 76, 80, 41, 36, 0)
s = 170: (0, 11, 13, 96, 107, 80, 17, 74, 42, 75, 29, 0)
s = 171: (0, 13, 13, 94, 72, 52, 16, 70, 46, 63, 35, 0)
s = 172: (0, 21, 18, 63, 71, 84, 21, 122, 77, 58, 26, 0)
s = 173: (0, 11, 19, 142, 85, 54, 19, 65, 38, 82, 39, 0)
s = 174: (0, 17, 22, 90, 69, 58, 9, 53, 57, 74, 38, 0)
s = 175: (0, 10, 16, 127, 135, 80, 14, 52, 47, 27, 44, 0)
s = 176: (0, 12, 15, 100, 124, 64, 14, 81, 54, 51, 27, 0)
s = 177: (0, 9, 13, 76, 125, 76, 10, 84, 34, 52, 43, 0)
s = 178: (0, 17, 11, 54, 115, 84, 11, 105, 39, 58, 19, 0)
s = 179: (0, 13, 14, 56, 84, 86, 23, 124, 36, 49, 35, 0)
s = 180: (0, 15, 17, 54, 120, 42, 14, 63, 71, 69, 31, 0)
s = 181: (0, 19, 20, 75, 147, 68, 9, 114, 37, 46, 24, 0)
s = 182: (0, 11, 18, 88, 93, 76, 18, 113, 72, 53, 50, 0)
s = 183: (0, 30, 17, 57, 79, 66, 10, 65, 33, 62, 39, 0)
s = 184: (0, 24, 20, 93, 110, 77, 12, 61, 36, 43, 36, 0)
s = 185: (0, 11, 20, 67, 78, 83, 13, 83, 57, 66, 37, 0)
s = 186: (0, 15, 13, 79, 66, 38, 14, 64, 36, 51, 26, 0)
s = 187: (0, 13, 19, 84, 87, 113, 15, 42, 35, 61, 33, 0)
s = 188: (0, 14, 13, 111, 104, 103, 16, 75, 59, 45, 18, 0)
s = 189: (0, 10, 10, 59, 57, 87, 13, 84, 53, 66, 29, 0)
s = 190: (0, 16, 12, 51, 132, 106, 14, 103, 28, 50, 26, 0)
s = 191: (0, 15, 17, 93, 130, 67, 7, 52, 51, 43, 40, 0)
s = 192: (0, 20, 16, 57, 112, 102, 11, 99, 38, 85, 21, 0)
s = 193: (0, 11, 16, 74, 66, 53, 17, 55, 61, 79, 19, 0)
s = 194: (0, 16, 18, 59, 68, 72, 17, 92, 33, 39, 26, 0)
s = 195: (0, 10, 13, 58, 132, 54, 10, 57, 59, 34, 27, 0)
s = 196: (0, 16, 18, 67, 86, 71, 15, 96, 48, 49, 32, 0)
s = 197: (0, 20, 15, 77, 62, 104, 11, 55, 54, 48, 32, 0)
s = 198: (0, 18, 22, 70, 65, 58, 10, 79, 59, 40, 32, 0)
s = 199: (0, 12, 19, 86, 128, 67, 11, 95, 52, 68, 49, 0)
s = 200: (0, 19, 25, 96, 94, 48, 15, 135, 48, 48, 18, 0)
------------------------------------------------------------------------
RESOURCE k = 2
s = 1: (0, 6, 9, 23, 68, 10, 7, 22, 8, 8, 7, 0)
s = 2: (0, 3, 10, 21, 95, 17, 5, 22, 9, 10, 15, 0)
s = 3: (0, 4, 7, 34, 77, 15, 5, 30, 8, 12, 8, 0)
s = 4: (0, 5, 5, 23, 40, 9, 5, 32, 10, 10, 12, 0)
s = 5: (0, 5, 5, 51, 75, 23, 6, 24, 15, 6, 6, 0)
s = 6: (0, 6, 8, 37, 54, 12, 3, 23, 19, 9, 13, 0)
s = 7: (0, 7, 10, 25, 42, 17, 5, 24, 11, 10, 8, 0)
s = 8: (0, 5, 7, 40, 64, 21, 7, 24, 8, 9, 16, 0)
s = 9: (0, 6, 7, 40, 73, 9, 7, 17, 13, 9, 12, 0)
s = 10: (0, 5, 6, 48, 64, 22, 6, 38, 14, 8, 8, 0)
s = 11: (0, 3, 9, 43, 46, 18, 4, 31, 10, 8, 7, 0)
s = 12: (0, 4, 11, 26, 39, 15, 5, 27, 15, 13, 10, 0)
s = 13: (0, 5, 13, 28, 49, 20, 4, 26, 14, 9, 11, 0)
s = 14: (0, 3, 9, 22, 68, 17, 5, 27, 15, 8, 7, 0)
s = 15: (0, 3, 8, 24, 77, 9, 9, 15, 13, 7, 11, 0)
s = 16: (0, 3, 8, 41, 41, 9, 5, 25, 11, 9, 10, 0)
s = 17: (0, 5, 8, 30, 50, 13, 6, 18, 13, 9, 12, 0)
s = 18: (0, 4, 13, 33, 52, 12, 5, 24, 14, 11, 9, 0)
s = 19: (0, 5, 11, 21, 72, 16, 6, 28, 13, 8, 14, 0)
s = 20: (0, 4, 11, 34, 37, 14, 6, 29, 12, 11, 6, 0)
s = 21: (0, 5, 6, 21, 80, 11, 7, 30, 13, 6, 8, 0)
s = 22: (0, 5, 8, 60, 66, 20, 7, 17, 7, 8, 10, 0)
s = 23: (0, 5, 8, 30, 65, 16, 7, 27, 9, 8, 10, 0)
s = 24: (0, 3, 7, 28, 80, 18, 4, 39, 15, 8, 7, 0)
s = 25: (0, 6, 9, 25, 111, 10, 5, 32, 7, 11, 10, 0)
s = 26: (0, 3, 9, 32, 53, 15, 4, 28, 13, 5, 10, 0)
s = 27: (0, 3, 12, 35, 46, 17, 8, 38, 14, 13, 7, 0)
s = 28: (0, 4, 5, 21, 38, 18, 4, 35, 19, 9, 15, 0)
s = 29: (0, 4, 7, 50, 46, 16, 4, 29, 15, 6, 13, 0)
s = 30: (0, 3, 9, 39, 65, 16, 3, 19, 17, 12, 9, 0)
s = 31: (0, 5, 8, 37, 81, 23, 4, 27, 13, 5, 7, 0)
s = 32: (0, 4, 10, 30, 63, 17, 4, 18, 7, 5, 13, 0)
s = 33: (0, 7, 6, 54, 50, 14, 7, 43, 17, 5, 9, 0)
s = 34: (0, 4, 13, 31, 68, 13, 4, 32, 19, 9, 10, 0)
s = 35: (0, 5, 7, 36, 51, 13, 6, 19, 8, 7, 13, 0)
s = 36: (0, 5, 11, 31, 86, 12, 5, 32, 16, 9, 7, 0)
s = 37: (0, 5, 11, 21, 60, 12, 5, 16, 15, 8, 9, 0)
s = 38: (0, 4, 10, 29, 43, 14, 8, 21, 9, 7, 11, 0)
s = 39: (0, 6, 9, 26, 43, 19, 4, 38, 20, 8, 11, 0)
s = 40: (0, 4, 6, 41, 49, 10, 5, 20, 10, 7, 8, 0)
s = 41: (0, 5, 8, 28, 72, 22, 6, 15, 14, 5, 8, 0)
s = 42: (0, 4, 10, 24, 44, 15, 8, 33, 18, 9, 8, 0)
s = 43: (0, 3, 7, 41, 49, 11, 5, 25, 9, 9, 9, 0)
s = 44: (0, 3, 10, 40, 41, 15, 5, 20, 12, 9, 13, 0)
s = 45: (0, 6, 9, 29, 77, 13, 5, 22, 7, 14, 12, 0)
s = 46: (0, 4, 5, 29, 63, 11, 5, 21, 9, 7, 8, 0)
s = 47: (0, 4, 6, 44, 75, 20, 5, 28, 12, 6, 9, 0)
s = 48: (0, 3, 10, 34, 68, 11, 5, 20, 8, 6, 11, 0)
s = 49: (0, 5, 10, 52, 35, 24, 5, 28, 20, 8, 16, 0)
s = 50: (0, 3, 9, 23, 54, 19, 5, 18, 17, 6, 12, 0)
s = 51: (0, 6, 5, 30, 69, 15, 3, 23, 8, 11, 9, 0)
s = 52: (0, 5, 7, 32, 48, 12, 5, 38, 18, 8, 7, 0)
s = 53: (0, 5, 5, 37, 63, 17, 6, 21, 13, 7, 7, 0)
s = 54: (0, 4, 7, 23, 79, 18, 5, 25, 22, 7, 10, 0)
s = 55: (0, 5, 6, 33, 80, 10, 6, 27, 13, 5, 8, 0)
s = 56: (0, 3, 9, 42, 50, 20, 7, 23, 11, 7, 6, 0)
s = 57: (0, 3, 15, 32, 59, 11, 4, 22, 11, 6, 15, 0)
s = 58: (0, 4, 7, 23, 36, 11, 5, 16, 11, 5, 12, 0)
s = 59: (0, 4, 11, 25, 87, 18, 3, 15, 10, 8, 10, 0)
s = 60: (0, 3, 13, 35, 48, 14, 4, 23, 8, 8, 8, 0)
s = 61: (0, 3, 12, 35, 55, 18, 3, 27, 21, 9, 11, 0)
s = 62: (0, 7, 10, 43, 38, 12, 6, 35, 15, 7, 10, 0)
s = 63: (0, 4, 11, 36, 42, 22, 6, 31, 9, 9, 11, 0)
s = 64: (0, 5, 6, 55, 111, 11, 5, 21, 10, 7, 7, 0)
s = 65: (0, 3, 7, 28, 90, 17, 4, 19, 15, 7, 7, 0)
s = 66: (0, 6, 8, 52, 40, 14, 4, 25, 12, 10, 13, 0)
s = 67: (0, 3, 5, 20, 36, 12, 4, 21, 11, 15, 12, 0)
s = 68: (0, 4, 13, 18, 73, 14, 5, 17, 8, 13, 7, 0)
s = 69: (0, 4, 6, 23, 80, 9, 5, 32, 13, 6, 13, 0)
s = 70: (0, 4, 14, 52, 57, 14, 5, 18, 12, 10, 9, 0)
s = 71: (0, 4, 8, 23, 64, 21, 6, 30, 12, 11, 13, 0)
s = 72: (0, 6, 8, 27, 66, 26, 6, 39, 11, 6, 5, 0)
s = 73: (0, 7, 8, 47, 69, 17, 5, 29, 16, 5, 10, 0)
s = 74: (0, 3, 14, 29, 71, 24, 4, 22, 9, 7, 14, 0)
s = 75: (0, 7, 11, 26, 54, 20, 5, 16, 12, 9, 8, 0)
s = 76: (0, 5, 10, 44, 50, 16, 6, 16, 13, 5, 11, 0)
s = 77: (0, 5, 12, 23, 66, 16, 7, 15, 9, 8, 9, 0)
s = 78: (0, 3, 6, 34, 72, 11, 5, 26, 9, 12, 8, 0)
s = 79: (0, 4, 9, 32, 58, 14, 4, 28, 9, 8, 7, 0)
s = 80: (0, 3, 5, 31, 77, 10, 8, 18, 11, 5, 7, 0)
s = 81: (0, 6, 12, 21, 63, 10, 6, 33, 11, 8, 6, 0)
s = 82: (0, 4, 8, 47, 72, 10, 7, 35, 7, 9, 12, 0)
s = 83: (0, 3, 11, 33, 42, 18, 5, 37, 18, 7, 11, 0)
s = 84: (0, 5, 5, 35, 48, 13, 5, 26, 15, 6, 7, 0)
s = 85: (0, 5, 11, 49, 55, 11, 6, 20, 14, 8, 10, 0)
s = 86: (0, 5, 12, 45, 79, 15, 5, 24, 11, 5, 7, 0)
s = 87: (0, 6, 7, 45, 60, 14, 6, 19, 11, 9, 8, 0)
s = 88: (0, 4, 8, 21, 79, 15, 4, 17, 10, 12, 8, 0)
s = 89: (0, 5, 9, 43, 40, 18, 6, 28, 7, 8, 7, 0)
s = 90: (0, 4, 10, 18, 58, 16, 4, 38, 8, 6, 11, 0)
s = 91: (0, 4, 10, 46, 48, 14, 6, 16, 10, 12, 8, 0)
s = 92: (0, 3, 15, 35, 56, 12, 6, 21, 15, 7, 9, 0)
s = 93: (0, 5, 14, 42, 111, 11, 5, 20, 8, 15, 6, 0)
s = 94: (0, 6, 7, 47, 77, 23, 5, 20, 7, 5, 12, 0)
s = 95: (0, 5, 8, 26, 66, 25, 6, 44, 11, 13, 10, 0)
s = 96: (0, 7, 9, 27, 53, 15, 5, 27, 9, 7, 6, 0)
s = 97: (0, 3, 7, 44, 52, 12, 4, 19, 12, 6, 8, 0)
s = 98: (0, 3, 8, 38, 96, 19, 6, 17, 9, 11, 13, 0)
s = 99: (0, 4, 6, 35, 45, 20, 6, 21, 9, 10, 8, 0)
s = 100: (0, 5, 15, 53, 81, 15, 3, 23, 20, 10, 9, 0)
s = 101: (0, 4, 7, 52, 77, 12, 7, 27, 11, 11, 14, 0)
s = 102: (0, 4, 7, 31, 38, 23, 4, 16, 12, 8, 12, 0)
s = 103: (0, 6, 7, 30, 81, 16, 4, 17, 11, 8, 7, 0)
s = 104: (0, 4, 10, 19, 66, 10, 6, 16, 11, 7, 6, 0)
s = 105: (0, 3, 11, 34, 64, 27, 6, 30, 20, 8, 11, 0)
s = 106: (0, 7, 8, 32, 43, 13, 5, 26, 10, 8, 12, 0)
s = 107: (0, 4, 7, 22, 70, 11, 6, 25, 12, 6, 7, 0)
s = 108: (0, 4, 8, 22, 57, 12, 4, 33, 9, 10, 9, 0)
s = 109: (0, 5, 13, 27, 56, 18, 7, 19, 13, 7, 12, 0)
s = 110: (0, 5, 9, 27, 70, 19, 8, 22, 7, 10, 12, 0)
s = 111: (0, 5, 10, 33, 47, 18, 8, 18, 12, 8, 9, 0)
s = 112: (0, 4, 5, 37, 49, 19, 5, 24, 21, 7, 6, 0)
s = 113: (0, 4, 7, 17, 72, 17, 7, 23, 13, 5, 10, 0)
s = 114: (0, 4, 11, 33, 55, 15, 5, 22, 11, 9, 10, 0)
s = 115: (0, 4, 6, 33, 102, 11, 5, 16, 15, 9, 15, 0)
s = 116: (0, 4, 8, 29, 95, 15, 5, 30, 8, 8, 11, 0)
s = 117: (0, 3, 9, 24, 75, 9, 7, 24, 8, 9, 6, 0)
s = 118: (0, 6, 11, 55, 66, 21, 4, 25, 11, 6, 10, 0)
s = 119: (0, 5, 8, 29, 66, 15, 5, 25, 8, 7, 9, 0)
s = 120: (0, 7, 9, 24, 75, 15, 8, 20, 14, 9, 9, 0)
s = 121: (0, 3, 7, 19, 62, 10, 6, 18, 13, 8, 9, 0)
s = 122: (0, 3, 7, 19, 59, 15, 5, 28, 12, 5, 9, 0)
s = 123: (0, 4, 10, 31, 53, 12, 4, 30, 11, 7, 6, 0)
s = 124: (0, 4, 7, 48, 46, 16, 3, 16, 13, 5, 9, 0)
s = 125: (0, 6, 7, 32, 48, 15, 8, 29, 9, 6, 7, 0)
s = 126: (0, 4, 7, 32, 56, 17, 5, 30, 19, 7, 10, 0)
s = 127: (0, 3, 10, 22, 61, 28, 6, 30, 16, 9, 10, 0)
s = 128: (0, 5, 9, 32, 69, 12, 5, 28, 11, 12, 6, 0)
s = 129: (0, 4, 9, 33, 37, 10, 6, 25, 9, 8, 7, 0)
s = 130: (0, 5, 12, 22, 36, 15, 8, 39, 7, 7, 10, 0)
s = 131: (0, 5, 6, 40, 39, 14, 5, 29, 11, 8, 8, 0)
s = 132: (0, 4, 9, 36, 65, 12, 6, 37, 18, 7, 7, 0)
s = 133: (0, 4, 6, 36, 70, 10, 8, 21, 12, 10, 13, 0)
s = 134: (0, 5, 6, 26, 94, 11, 5, 25, 9, 7, 7, 0)
s = 135: (0, 5, 11, 26, 92, 14, 5, 37, 14, 14, 11, 0)
s = 136: (0, 4, 5, 40, 65, 13, 4, 41, 11, 9, 7, 0)
s = 137: (0, 5, 8, 37, 39, 14, 9, 18, 15, 8, 7, 0)
s = 138: (0, 4, 5, 25, 38, 28, 4, 26, 9, 8, 14, 0)
s = 139: (0, 5, 11, 31, 64, 13, 4, 34, 9, 7, 10, 0)
s = 140: (0, 4, 9, 54, 64, 17, 5, 18, 13, 9, 12, 0)
s = 141: (0, 4, 8, 36, 47, 15, 3, 35, 8, 12, 9, 0)
s = 142: (0, 5, 11, 33, 49, 15, 9, 18, 15, 6, 6, 0)
s = 143: (0, 3, 10, 26, 67, 12, 7, 21, 12, 6, 10, 0)
s = 144: (0, 4, 10, 40, 61, 10, 5, 13, 11, 8, 18, 0)
s = 145: (0, 5, 7, 27, 59, 15, 6, 28, 9, 6, 11, 0)
s = 146: (0, 5, 8, 36, 57, 12, 7, 18, 7, 7, 8, 0)
s = 147: (0, 3, 10, 27, 50, 11, 4, 32, 13, 5, 10, 0)
s = 148: (0, 5, 11, 39, 71, 13, 6, 17, 13, 9, 10, 0)
s = 149: (0, 7, 13, 22, 76, 10, 4, 29, 12, 10, 11, 0)
s = 150: (0, 4, 6, 31, 94, 22, 6, 21, 9, 12, 9, 0)
s = 151: (0, 4, 8, 19, 54, 11, 7, 36, 8, 10, 8, 0)
s = 152: (0, 5, 7, 35, 70, 11, 4, 36, 13, 8, 9, 0)
s = 153: (0, 4, 7, 41, 80, 16, 5, 21, 12, 12, 10, 0)
s = 154: (0, 5, 8, 35, 41, 22, 4, 26, 11, 8, 9, 0)
s = 155: (0, 4, 7, 37, 56, 11, 5, 28, 12, 8, 8, 0)
s = 156: (0, 3, 8, 38, 84, 27, 5, 31, 12, 6, 8, 0)
s = 157: (0, 4, 7, 38, 43, 20, 5, 29, 10, 7, 10, 0)
s = 158: (0, 6, 6, 38, 54, 10, 10, 25, 10, 11, 9, 0)
s = 159: (0, 5, 6, 27, 79, 17, 4, 19, 8, 7, 9, 0)
s = 160: (0, 3, 7, 32, 39, 9, 7, 32, 8, 11, 7, 0)
s = 161: (0, 4, 7, 28, 48, 22, 6, 39, 9, 7, 15, 0)
s = 162: (0, 5, 7, 46, 49, 20, 6, 20, 10, 5, 7, 0)
s = 163: (0, 5, 10, 32, 53, 19, 6, 28, 11, 7, 7, 0)
s = 164: (0, 4, 8, 26, 84, 26, 4, 21, 11, 10, 10, 0)
s = 165: (0, 3, 8, 32, 42, 13, 5, 49, 7, 6, 10, 0)
s = 166: (0, 4, 9, 33, 43, 25, 6, 26, 9, 8, 7, 0)
s = 167: (0, 5, 6, 21, 67, 19, 6, 33, 12, 10, 8, 0)
s = 168: (0, 4, 7, 32, 86, 13, 7, 35, 9, 10, 8, 0)
s = 169: (0, 7, 7, 25, 45, 14, 4, 24, 19, 7, 11, 0)
s = 170: (0, 3, 7, 41, 74, 18, 7, 24, 10, 12, 9, 0)
s = 171: (0, 4, 7, 40, 50, 12, 6, 22, 11, 10, 11, 0)
s = 172: (0, 6, 9, 27, 50, 18, 8, 38, 19, 9, 8, 0)
s = 173: (0, 3, 10, 60, 59, 12, 8, 21, 9, 13, 12, 0)
s = 174: (0, 5, 11, 38, 48, 13, 4, 17, 14, 12, 12, 0)
s = 175: (0, 3, 8, 54, 94, 18, 6, 17, 12, 5, 14, 0)
s = 176: (0, 4, 8, 43, 86, 14, 6, 26, 13, 8, 8, 0)
s = 177: (0, 3, 7, 32, 86, 17, 4, 26, 8, 8, 13, 0)
s = 178: (0, 5, 6, 23, 80, 18, 5, 33, 10, 9, 6, 0)
s = 179: (0, 4, 7, 24, 58, 19, 9, 39, 9, 8, 11, 0)
s = 180: (0, 4, 9, 23, 83, 9, 6, 20, 17, 11, 10, 0)
s = 181: (0, 5, 10, 32, 102, 15, 4, 36, 9, 7, 8, 0)
s = 182: (0, 3, 9, 37, 65, 17, 7, 36, 17, 9, 15, 0)
s = 183: (0, 8, 9, 24, 55, 14, 4, 21, 8, 10, 12, 0)
s = 184: (0, 7, 10, 39, 76, 17, 5, 19, 9, 7, 11, 0)
s = 185: (0, 3, 10, 28, 54, 18, 5, 26, 14, 11, 11, 0)
s = 186: (0, 4, 7, 34, 46, 9, 6, 20, 9, 8, 8, 0)
s = 187: (0, 4, 10, 36, 60, 25, 6, 13, 9, 10, 10, 0)
s = 188: (0, 4, 7, 47, 72, 22, 6, 24, 14, 7, 6, 0)
s = 189: (0, 3, 5, 25, 40, 19, 5, 27, 13, 11, 9, 0)
s = 190: (0, 5, 6, 22, 91, 23, 6, 32, 7, 8, 8, 0)
s = 191: (0, 4, 9, 39, 90, 15, 3, 17, 12, 7, 12, 0)
s = 192: (0, 6, 8, 24, 78, 22, 5, 31, 9, 13, 7, 0)
s = 193: (0, 3, 8, 32, 46, 12, 7, 18, 15, 13, 6, 0)
s = 194: (0, 5, 9, 25, 47, 16, 7, 29, 8, 6, 8, 0)
s = 195: (0, 3, 7, 25, 92, 12, 4, 18, 14, 6, 8, 0)
s = 196: (0, 5, 9, 28, 59, 16, 6, 30, 12, 8, 10, 0)
s = 197: (0, 6, 8, 33, 43, 23, 4, 17, 13, 8, 10, 0)
s = 198: (0, 5, 11, 30, 45, 13, 4, 25, 14, 7, 10, 0)
s = 199: (0, 4, 10, 37, 89, 15, 4, 30, 13, 11, 15, 0)
s = 200: (0, 5, 13, 41, 65, 11, 6, 42, 12, 8, 6, 0)
************************************************************************
ES/LS-VALUES:
jobnr.   ES(i)    LS(i)
------------------------------------------------------------------------
  0        0        0
  1        0       67
  2        0       55
  3        0       46
  4        7       54
  5        3       59
  6       19       67
  7       21       69
  8       30       79
  9       12       77
 10        7       79
 11       35       85
************************************************************************
BIG-M-VALUES:
M1 = 46, M2 = 271
************************************************************************
